
Gurobi 10.0.2 (linux64) logging started Sun 21 Jul 2024 05:35:31 AM -05

Set parameter LogFile to value "gurobi.log"
Gurobi Optimizer version 10.0.2 build v10.0.2rc0 (linux64)

CPU model: Intel(R) Core(TM) i5-1035G1 CPU @ 1.00GHz, instruction set [SSE2|AVX|AVX2|AVX512]
Thread count: 4 physical cores, 8 logical processors, using up to 8 threads

Academic license 2446675 - for non-commercial use only - registered to mi___@epn.edu.ec
Optimize a model with 9803 rows, 4250 columns and 88052 nonzeros
Model fingerprint: 0xd8713b03
Variable types: 0 continuous, 4250 integer (1079 binary)
Coefficient statistics:
  Matrix range     [5e-01, 2e+03]
  Objective range  [1e+00, 1e+00]
  Bounds range     [1e+00, 3e+03]
  RHS range        [1e+00, 5e+03]
Presolve removed 8886 rows and 3267 columns
Presolve time: 0.07s
Presolved: 917 rows, 983 columns, 3980 nonzeros
Variable types: 0 continuous, 983 integer (884 binary)
Found heuristic solution: objective 92135.000000

Root relaxation: cutoff, 0 iterations, 0.00 seconds (0.00 work units)

Explored 1 nodes (0 simplex iterations) in 0.09 seconds (0.09 work units)
Thread count was 8 (of 8 available processors)

Solution count 1: 92135 

Optimal solution found (tolerance 1.00e-04)
Best objective 9.213500000000e+04, best bound 9.213500000000e+04, gap 0.0000%
